* #variable= 6 #constraint= 5 #product= 17 sizeproduct= 12
min: 1 x2 x1 1 x4 x3 1 x6 x5 ;
1 x2 ~x1 1 x4 ~x3 1 x6 ~x5 1 x2 x1 x4 x3 x6 x5 >= 1;
1 x1 ~x2 1 x3 ~x4 1 x5 ~x6 1 x1 x2 x3 x4 x5 x6 >= 1;
1 x1 ~x2 1 x4 ~x3 1 x1 x2 x4 x3 >= 1;
1 x3 ~x4 1 x6 ~x5 1 x3 x4 x6 x5 >= 1;
1 x5 ~x6 1 x2 ~x1 1 x5 x6 x2 x1 >= 1;
